NAME : BB45.1555134.tour
COMMENT : Cost = 0_1555134
COMMENT : Found by LKH [Keld Helsgaun] Sun Apr 23 15:14:35 2017
TYPE : TOUR
DIMENSION : 94
TOUR_SECTION
1
37
82
5
50
15
42
60
24
87
4
49
69
23
13
58
68
14
59
30
75
31
76
18
63
28
73
92
12
57
39
84
7
52
44
89
41
86
26
71
45
90
43
88
6
51
93
22
67
25
70
35
80
3
48
29
74
40
85
32
46
77
91
19
64
34
79
9
54
38
83
8
53
94
17
16
27
62
72
61
33
78
21
66
11
56
20
65
36
81
10
2
55
47
-1
EOF
